100 156836
77 18 47 41 34 40 57 63 31 88 56 28 48 74 96 68 98 53 54 91 25 32 59 97 8 20 11 33 27 79 89 67 39 99 46 86 81 64 73 87 43 13 4 7 5 36 19 62 60 78 30 15 58 49 83 45 14 95 76 92 80 55 35 100 17 6 10 38 70 71 61 93 29 66 50 42 2 9 72 85 84 3 52 12 22 44 1 90 75 16 94 37 82 65 24 26 51 69 21 23 
